100
32
23
2
20
14
6
23
28
31
28
9
32
9
29
23
5
8
7
6
29
3
21
2
9
8
1
1
1
2
2
18
1
1
17
7
1
20
3
2
2
2
18
1
22
3
5
2
1
3
2
2
4
1
3
4
2
2
2
3
3
17
1
1
3
2
5
2
3
17
1
1
6
2
3
1
1
4
1
18
1
9
1
1
17
2
3
2
19
1
1
3
1
2
3
1
2
3
1
1
1
1